c/ pour n = 2

c / C1,1 = 1
c / C1,2 = 2
c / C2,1 = 3
c / C2,2 = 4
c / C3,1 = 5
c / C3,2 = 6

p cnf 30 6
1 2 0
3 4 0
5 6 0

2 1 0
2 -3 0
2 -5 0

-4 1 0
-4 -3 0
-4 -5 0

-6 1 0
-6 -3 0
-6 -5 0

4 3 0
4 -1 0 
4 -5 0

-2 3 0
-2 -1 0 
-2 -5 0

-6 3 0
-6 -1 0 
-6 -5 0

6 5 0
6 -1 0
6 -3 0

-2 5 0
-2 -1 0
-2 -3 0

-4 5 0
-4 -1 0
-4 -3 0
